[VALIDATOR STDOUT]
Checking plan: /home/jfan5/Safety-gen/runs/benchmark/optic/delivery_20260201_172908/delivery/optic_results/delivery_size33_packages1_seed33001.plan
Plan executed successfully - checking goal
Plan valid
Final value: 202 

Successful plans:
Value: 202
 /home/jfan5/Safety-gen/runs/benchmark/optic/delivery_20260201_172908/delivery/optic_results/delivery_size33_packages1_seed33001.plan 202
